p cnf 1 500
1 0
-1 0
-1 0
-1 0
1 0
1 0
1 0
1 0
-1 0
-1 0
1 0
-1 0
-1 0
-1 0
1 0
-1 0
1 0
-1 0
-1 0
1 0
-1 0
1 0
-1 0
1 0
-1 0
1 0
-1 0
-1 0
1 0
1 0
-1 0
1 0
1 0
-1 0
1 0
-1 0
1 0
1 0
-1 0
-1 0
-1 0
1 0
-1 0
1 0
-1 0
1 0
1 0
1 0
1 0
-1 0
1 0
1 0
1 0
-1 0
-1 0
1 0
1 0
1 0
1 0
1 0
-1 0
1 0
1 0
-1 0
1 0
-1 0
-1 0
-1 0
1 0
1 0
-1 0
1 0
-1 0
1 0
1 0
1 0
-1 0
1 0
-1 0
-1 0
-1 0
-1 0
1 0
-1 0
1 0
1 0
1 0
1 0
-1 0
-1 0
-1 0
-1 0
1 0
-1 0
-1 0
1 0
-1 0
-1 0
-1 0
1 0
-1 0
-1 0
1 0
1 0
-1 0
-1 0
-1 0
-1 0
-1 0
-1 0
-1 0
1 0
-1 0
1 0
-1 0
1 0
-1 0
-1 0
1 0
-1 0
1 0
1 0
1 0
-1 0
1 0
1 0
-1 0
-1 0
-1 0
-1 0
-1 0
1 0
1 0
-1 0
-1 0
1 0
-1 0
1 0
1 0
-1 0
1 0
-1 0
-1 0
-1 0
-1 0
-1 0
1 0
1 0
-1 0
1 0
1 0
1 0
-1 0
-1 0
-1 0
1 0
1 0
-1 0
1 0
1 0
-1 0
1 0
1 0
1 0
-1 0
-1 0
1 0
-1 0
-1 0
-1 0
-1 0
-1 0
1 0
-1 0
1 0
-1 0
-1 0
1 0
-1 0
1 0
1 0
1 0
1 0
-1 0
-1 0
-1 0
-1 0
1 0
1 0
-1 0
1 0
1 0
-1 0
-1 0
-1 0
1 0
1 0
1 0
-1 0
-1 0
-1 0
-1 0
-1 0
-1 0
-1 0
-1 0
1 0
-1 0
1 0
-1 0
-1 0
-1 0
1 0
-1 0
1 0
1 0
-1 0
-1 0
1 0
-1 0
-1 0
-1 0
-1 0
1 0
-1 0
-1 0
1 0
1 0
1 0
1 0
-1 0
1 0
1 0
-1 0
1 0
-1 0
1 0
1 0
-1 0
1 0
-1 0
-1 0
-1 0
1 0
-1 0
1 0
-1 0
-1 0
1 0
-1 0
-1 0
1 0
1 0
-1 0
-1 0
1 0
-1 0
1 0
1 0
-1 0
-1 0
1 0
1 0
1 0
-1 0
-1 0
-1 0
-1 0
1 0
1 0
1 0
1 0
1 0
-1 0
-1 0
1 0
-1 0
1 0
1 0
1 0
1 0
-1 0
1 0
1 0
-1 0
-1 0
1 0
1 0
1 0
1 0
1 0
-1 0
1 0
-1 0
1 0
-1 0
1 0
-1 0
1 0
1 0
-1 0
-1 0
1 0
1 0
1 0
-1 0
-1 0
1 0
-1 0
-1 0
1 0
-1 0
1 0
-1 0
1 0
1 0
1 0
-1 0
-1 0
-1 0
-1 0
1 0
-1 0
-1 0
-1 0
1 0
-1 0
-1 0
-1 0
-1 0
-1 0
-1 0
1 0
1 0
1 0
-1 0
-1 0
1 0
1 0
1 0
-1 0
1 0
1 0
-1 0
-1 0
1 0
-1 0
-1 0
1 0
1 0
1 0
1 0
1 0
-1 0
1 0
-1 0
-1 0
-1 0
-1 0
1 0
-1 0
-1 0
1 0
-1 0
1 0
1 0
-1 0
1 0
-1 0
-1 0
1 0
-1 0
1 0
1 0
-1 0
-1 0
-1 0
-1 0
1 0
1 0
-1 0
-1 0
1 0
1 0
-1 0
-1 0
-1 0
-1 0
1 0
1 0
1 0
1 0
-1 0
-1 0
-1 0
-1 0
1 0
-1 0
1 0
1 0
-1 0
1 0
1 0
-1 0
1 0
-1 0
1 0
1 0
-1 0
-1 0
1 0
1 0
-1 0
-1 0
1 0
-1 0
1 0
-1 0
-1 0
1 0
1 0
-1 0
-1 0
-1 0
1 0
-1 0
-1 0
-1 0
1 0
1 0
-1 0
-1 0
-1 0
1 0
1 0
-1 0
1 0
1 0
1 0
-1 0
1 0
-1 0
1 0
-1 0
1 0
1 0
-1 0
1 0
-1 0
1 0
-1 0
-1 0
-1 0
-1 0
-1 0
-1 0
-1 0
-1 0
1 0
-1 0
-1 0
-1 0
1 0
1 0
-1 0
1 0
1 0
1 0
1 0
1 0
-1 0
-1 0
1 0
-1 0
1 0
-1 0
1 0
1 0
1 0
1 0
1 0
-1 0
1 0
-1 0
-1 0
1 0
-1 0
-1 0
-1 0
1 0
-1 0
1 0
-1 0
-1 0
-1 0
1 0
-1 0
1 0
1 0
1 0
